NAME: X280-FSMF
COMMENT: Generated by Uchoa, Pecin, Pessoa, Poggi, Subramanian, and Vidal (2013). Modified by Sadykov, Pessoa and Uchoa (2017). Converted to PyVRP's VRPLIB dialect.
TYPE: HFVRP
DIMENSION: 280
VEHICLES: 837
EDGE_WEIGHT_TYPE: EUC_2D
NODE_COORD_SECTION
1	0	0
2	909	919
3	878	721
4	969	85
5	591	195
6	955	148
7	587	903
8	994	792
9	625	129
10	544	703
11	461	167
12	37	644
13	615	22
14	773	788
15	384	364
16	51	291
17	109	732
18	570	124
19	692	985
20	62	150
21	358	5
22	188	450
23	674	658
24	676	904
25	815	984
26	710	16
27	74	658
28	576	1000
29	636	695
30	547	92
31	587	397
32	26	150
33	182	561
34	938	462
35	362	928
36	366	835
37	516	892
38	448	923
39	501	445
40	513	799
41	905	388
42	474	791
43	560	782
44	465	552
45	315	645
46	738	396
47	45	915
48	797	871
49	922	643
50	793	586
51	921	458
52	160	295
53	598	257
54	516	221
55	99	169
56	788	634
57	425	751
58	616	680
59	949	444
60	987	459
61	182	279
62	127	354
63	791	822
64	645	609
65	857	386
66	917	154
67	398	480
68	729	688
69	134	510
70	172	2
71	499	737
72	780	565
73	908	477
74	917	341
75	272	553
76	421	876
77	770	2
78	497	623
79	853	27
80	853	521
81	519	196
82	90	822
83	827	901
84	350	168
85	656	56
86	199	924
87	732	55
88	772	748
89	884	973
90	158	430
91	563	13
92	50	959
93	609	223
94	628	860
95	264	436
96	699	764
97	441	479
98	95	246
99	236	627
100	307	893
101	695	302
102	378	639
103	830	30
104	44	339
105	885	644
106	122	603
107	850	732
108	155	865
109	230	346
110	300	719
111	55	954
112	467	494
113	153	641
114	713	82
115	659	564
116	881	18
117	781	654
118	490	806
119	823	569
120	878	496
121	441	898
122	589	516
123	165	614
124	17	749
125	164	778
126	296	858
127	258	488
128	437	866
129	187	88
130	725	988
131	125	619
132	352	701
133	447	517
134	316	80
135	743	575
136	555	373
137	84	140
138	341	827
139	541	567
140	919	768
141	945	924
142	397	932
143	905	944
144	892	37
145	74	227
146	911	617
147	668	697
148	1	96
149	223	299
150	637	118
151	622	958
152	356	127
153	347	777
154	157	190
155	8	497
156	138	78
157	100	192
158	384	598
159	23	228
160	110	163
161	345	464
162	53	628
163	316	705
164	112	361
165	642	405
166	235	578
167	489	621
168	563	916
169	759	215
170	822	262
171	597	310
172	960	837
173	164	988
174	37	513
175	648	247
176	375	402
177	531	205
178	935	676
179	103	549
180	964	651
181	233	241
182	891	112
183	378	472
184	457	893
185	852	861
186	113	701
187	340	913
188	662	198
189	667	718
190	140	332
191	809	908
192	968	908
193	163	857
194	333	418
195	59	136
196	839	123
197	529	215
198	385	380
199	319	417
200	318	216
201	156	119
202	816	160
203	267	210
204	528	320
205	138	787
206	473	713
207	537	114
208	168	838
209	774	825
210	32	510
211	216	372
212	16	935
213	60	733
214	500	37
215	343	363
216	429	41
217	205	398
218	708	298
219	411	109
220	840	359
221	112	603
222	816	310
223	865	775
224	259	348
225	893	516
226	814	607
227	605	162
228	781	239
229	359	199
230	16	739
231	482	214
232	70	526
233	528	103
234	572	770
235	802	517
236	876	469
237	118	571
238	952	781
239	823	795
240	522	595
241	52	336
242	456	367
243	255	413
244	410	194
245	956	21
246	717	142
247	766	880
248	524	825
249	657	640
250	189	232
251	471	339
252	920	809
253	688	98
254	660	781
255	441	81
256	236	735
257	784	692
258	743	446
259	201	32
260	188	957
261	381	605
262	380	904
263	227	263
264	69	94
265	123	416
266	341	341
267	450	482
268	251	533
269	352	591
270	724	967
271	753	539
272	684	924
273	617	989
274	455	500
275	472	926
276	395	683
277	167	357
278	789	678
279	897	272
280	991	492
DEMAND_SECTION
1	0
2	92
3	88
4	93
5	90
6	73
7	100
8	53
9	66
10	82
11	59
12	100
13	76
14	84
15	56
16	91
17	58
18	65
19	56
20	68
21	88
22	54
23	76
24	80
25	53
26	1
27	2
28	2
29	7
30	10
31	9
32	8
33	3
34	3
35	2
36	9
37	6
38	10
39	3
40	1
41	4
42	6
43	1
44	4
45	3
46	7
47	7
48	2
49	1
50	1
51	4
52	4
53	5
54	4
55	7
56	3
57	3
58	8
59	6
60	4
61	4
62	2
63	1
64	7
65	5
66	1
67	6
68	8
69	4
70	8
71	7
72	2
73	1
74	9
75	4
76	3
77	3
78	9
79	8
80	5
81	9
82	9
83	4
84	9
85	8
86	6
87	8
88	7
89	9
90	3
91	1
92	8
93	1
94	2
95	4
96	3
97	3
98	7
99	4
100	6
101	6
102	2
103	6
104	7
105	8
106	6
107	3
108	10
109	9
110	5
111	7
112	10
113	10
114	10
115	3
116	10
117	10
118	1
119	9
120	2
121	10
122	1
123	8
124	7
125	10
126	2
127	2
128	7
129	10
130	2
131	8
132	8
133	2
134	5
135	3
136	10
137	7
138	1
139	2
140	9
141	4
142	8
143	6
144	1
145	6
146	7
147	4
148	10
149	4
150	10
151	5
152	10
153	9
154	2
155	1
156	3
157	3
158	6
159	6
160	2
161	9
162	9
163	10
164	4
165	7
166	9
167	10
168	2
169	10
170	6
171	2
172	10
173	10
174	10
175	9
176	9
177	10
178	3
179	10
180	1
181	2
182	7
183	6
184	4
185	9
186	9
187	1
188	9
189	4
190	4
191	10
192	1
193	1
194	1
195	3
196	9
197	1
198	7
199	9
200	6
201	10
202	4
203	6
204	8
205	9
206	3
207	7
208	7
209	4
210	9
211	3
212	7
213	7
214	4
215	6
216	6
217	3
218	6
219	2
220	7
221	5
222	1
223	5
224	6
225	10
226	10
227	9
228	4
229	9
230	1
231	3
232	4
233	9
234	7
235	6
236	5
237	4
238	1
239	3
240	7
241	10
242	8
243	6
244	9
245	10
246	3
247	8
248	8
249	2
250	4
251	5
252	10
253	8
254	8
255	5
256	10
257	7
258	8
259	1
260	2
261	2
262	3
263	5
264	9
265	1
266	8
267	5
268	2
269	8
270	6
271	9
272	3
273	2
274	3
275	1
276	10
277	6
278	7
279	3
280	4
CAPACITY_SECTION
1	130
2	130
3	130
4	130
5	130
6	130
7	130
8	130
9	130
10	130
11	130
12	130
13	130
14	130
15	130
16	130
17	130
18	130
19	130
20	130
21	130
22	130
23	130
24	130
25	130
26	130
27	130
28	130
29	130
30	130
31	130
32	130
33	130
34	130
35	130
36	130
37	130
38	130
39	130
40	130
41	130
42	130
43	130
44	130
45	130
46	130
47	130
48	130
49	130
50	130
51	130
52	130
53	130
54	130
55	130
56	130
57	130
58	130
59	130
60	130
61	130
62	130
63	130
64	130
65	130
66	130
67	130
68	130
69	130
70	130
71	130
72	130
73	130
74	130
75	130
76	130
77	130
78	130
79	130
80	130
81	130
82	130
83	130
84	130
85	130
86	130
87	130
88	130
89	130
90	130
91	130
92	130
93	130
94	130
95	130
96	130
97	130
98	130
99	130
100	130
101	130
102	130
103	130
104	130
105	130
106	130
107	130
108	130
109	130
110	130
111	130
112	130
113	130
114	130
115	130
116	130
117	130
118	130
119	130
120	130
121	130
122	130
123	130
124	130
125	130
126	130
127	130
128	130
129	130
130	130
131	130
132	130
133	130
134	130
135	130
136	130
137	130
138	130
139	130
140	130
141	130
142	130
143	130
144	130
145	130
146	130
147	130
148	130
149	130
150	130
151	130
152	130
153	130
154	130
155	130
156	130
157	130
158	130
159	130
160	130
161	130
162	130
163	130
164	130
165	130
166	130
167	130
168	130
169	130
170	130
171	130
172	130
173	130
174	130
175	130
176	130
177	130
178	130
179	130
180	130
181	130
182	130
183	130
184	130
185	130
186	130
187	130
188	130
189	130
190	130
191	130
192	130
193	130
194	130
195	130
196	130
197	130
198	130
199	130
200	130
201	130
202	130
203	130
204	130
205	130
206	130
207	130
208	130
209	130
210	130
211	130
212	130
213	130
214	130
215	130
216	130
217	130
218	130
219	130
220	130
221	130
222	130
223	130
224	130
225	130
226	130
227	130
228	130
229	130
230	130
231	130
232	130
233	130
234	130
235	130
236	130
237	130
238	130
239	130
240	130
241	130
242	130
243	130
244	130
245	130
246	130
247	130
248	130
249	130
250	130
251	130
252	130
253	130
254	130
255	130
256	130
257	130
258	130
259	130
260	130
261	130
262	130
263	130
264	130
265	130
266	130
267	130
268	130
269	130
270	130
271	130
272	130
273	130
274	130
275	130
276	130
277	130
278	130
279	130
280	185
281	185
282	185
283	185
284	185
285	185
286	185
287	185
288	185
289	185
290	185
291	185
292	185
293	185
294	185
295	185
296	185
297	185
298	185
299	185
300	185
301	185
302	185
303	185
304	185
305	185
306	185
307	185
308	185
309	185
310	185
311	185
312	185
313	185
314	185
315	185
316	185
317	185
318	185
319	185
320	185
321	185
322	185
323	185
324	185
325	185
326	185
327	185
328	185
329	185
330	185
331	185
332	185
333	185
334	185
335	185
336	185
337	185
338	185
339	185
340	185
341	185
342	185
343	185
344	185
345	185
346	185
347	185
348	185
349	185
350	185
351	185
352	185
353	185
354	185
355	185
356	185
357	185
358	185
359	185
360	185
361	185
362	185
363	185
364	185
365	185
366	185
367	185
368	185
369	185
370	185
371	185
372	185
373	185
374	185
375	185
376	185
377	185
378	185
379	185
380	185
381	185
382	185
383	185
384	185
385	185
386	185
387	185
388	185
389	185
390	185
391	185
392	185
393	185
394	185
395	185
396	185
397	185
398	185
399	185
400	185
401	185
402	185
403	185
404	185
405	185
406	185
407	185
408	185
409	185
410	185
411	185
412	185
413	185
414	185
415	185
416	185
417	185
418	185
419	185
420	185
421	185
422	185
423	185
424	185
425	185
426	185
427	185
428	185
429	185
430	185
431	185
432	185
433	185
434	185
435	185
436	185
437	185
438	185
439	185
440	185
441	185
442	185
443	185
444	185
445	185
446	185
447	185
448	185
449	185
450	185
451	185
452	185
453	185
454	185
455	185
456	185
457	185
458	185
459	185
460	185
461	185
462	185
463	185
464	185
465	185
466	185
467	185
468	185
469	185
470	185
471	185
472	185
473	185
474	185
475	185
476	185
477	185
478	185
479	185
480	185
481	185
482	185
483	185
484	185
485	185
486	185
487	185
488	185
489	185
490	185
491	185
492	185
493	185
494	185
495	185
496	185
497	185
498	185
499	185
500	185
501	185
502	185
503	185
504	185
505	185
506	185
507	185
508	185
509	185
510	185
511	185
512	185
513	185
514	185
515	185
516	185
517	185
518	185
519	185
520	185
521	185
522	185
523	185
524	185
525	185
526	185
527	185
528	185
529	185
530	185
531	185
532	185
533	185
534	185
535	185
536	185
537	185
538	185
539	185
540	185
541	185
542	185
543	185
544	185
545	185
546	185
547	185
548	185
549	185
550	185
551	185
552	185
553	185
554	185
555	185
556	185
557	185
558	185
559	261
560	261
561	261
562	261
563	261
564	261
565	261
566	261
567	261
568	261
569	261
570	261
571	261
572	261
573	261
574	261
575	261
576	261
577	261
578	261
579	261
580	261
581	261
582	261
583	261
584	261
585	261
586	261
587	261
588	261
589	261
590	261
591	261
592	261
593	261
594	261
595	261
596	261
597	261
598	261
599	261
600	261
601	261
602	261
603	261
604	261
605	261
606	261
607	261
608	261
609	261
610	261
611	261
612	261
613	261
614	261
615	261
616	261
617	261
618	261
619	261
620	261
621	261
622	261
623	261
624	261
625	261
626	261
627	261
628	261
629	261
630	261
631	261
632	261
633	261
634	261
635	261
636	261
637	261
638	261
639	261
640	261
641	261
642	261
643	261
644	261
645	261
646	261
647	261
648	261
649	261
650	261
651	261
652	261
653	261
654	261
655	261
656	261
657	261
658	261
659	261
660	261
661	261
662	261
663	261
664	261
665	261
666	261
667	261
668	261
669	261
670	261
671	261
672	261
673	261
674	261
675	261
676	261
677	261
678	261
679	261
680	261
681	261
682	261
683	261
684	261
685	261
686	261
687	261
688	261
689	261
690	261
691	261
692	261
693	261
694	261
695	261
696	261
697	261
698	261
699	261
700	261
701	261
702	261
703	261
704	261
705	261
706	261
707	261
708	261
709	261
710	261
711	261
712	261
713	261
714	261
715	261
716	261
717	261
718	261
719	261
720	261
721	261
722	261
723	261
724	261
725	261
726	261
727	261
728	261
729	261
730	261
731	261
732	261
733	261
734	261
735	261
736	261
737	261
738	261
739	261
740	261
741	261
742	261
743	261
744	261
745	261
746	261
747	261
748	261
749	261
750	261
751	261
752	261
753	261
754	261
755	261
756	261
757	261
758	261
759	261
760	261
761	261
762	261
763	261
764	261
765	261
766	261
767	261
768	261
769	261
770	261
771	261
772	261
773	261
774	261
775	261
776	261
777	261
778	261
779	261
780	261
781	261
782	261
783	261
784	261
785	261
786	261
787	261
788	261
789	261
790	261
791	261
792	261
793	261
794	261
795	261
796	261
797	261
798	261
799	261
800	261
801	261
802	261
803	261
804	261
805	261
806	261
807	261
808	261
809	261
810	261
811	261
812	261
813	261
814	261
815	261
816	261
817	261
818	261
819	261
820	261
821	261
822	261
823	261
824	261
825	261
826	261
827	261
828	261
829	261
830	261
831	261
832	261
833	261
834	261
835	261
836	261
837	261
VEHICLES_FIXED_COST_SECTION
1	132000
2	132000
3	132000
4	132000
5	132000
6	132000
7	132000
8	132000
9	132000
10	132000
11	132000
12	132000
13	132000
14	132000
15	132000
16	132000
17	132000
18	132000
19	132000
20	132000
21	132000
22	132000
23	132000
24	132000
25	132000
26	132000
27	132000
28	132000
29	132000
30	132000
31	132000
32	132000
33	132000
34	132000
35	132000
36	132000
37	132000
38	132000
39	132000
40	132000
41	132000
42	132000
43	132000
44	132000
45	132000
46	132000
47	132000
48	132000
49	132000
50	132000
51	132000
52	132000
53	132000
54	132000
55	132000
56	132000
57	132000
58	132000
59	132000
60	132000
61	132000
62	132000
63	132000
64	132000
65	132000
66	132000
67	132000
68	132000
69	132000
70	132000
71	132000
72	132000
73	132000
74	132000
75	132000
76	132000
77	132000
78	132000
79	132000
80	132000
81	132000
82	132000
83	132000
84	132000
85	132000
86	132000
87	132000
88	132000
89	132000
90	132000
91	132000
92	132000
93	132000
94	132000
95	132000
96	132000
97	132000
98	132000
99	132000
100	132000
101	132000
102	132000
103	132000
104	132000
105	132000
106	132000
107	132000
108	132000
109	132000
110	132000
111	132000
112	132000
113	132000
114	132000
115	132000
116	132000
117	132000
118	132000
119	132000
120	132000
121	132000
122	132000
123	132000
124	132000
125	132000
126	132000
127	132000
128	132000
129	132000
130	132000
131	132000
132	132000
133	132000
134	132000
135	132000
136	132000
137	132000
138	132000
139	132000
140	132000
141	132000
142	132000
143	132000
144	132000
145	132000
146	132000
147	132000
148	132000
149	132000
150	132000
151	132000
152	132000
153	132000
154	132000
155	132000
156	132000
157	132000
158	132000
159	132000
160	132000
161	132000
162	132000
163	132000
164	132000
165	132000
166	132000
167	132000
168	132000
169	132000
170	132000
171	132000
172	132000
173	132000
174	132000
175	132000
176	132000
177	132000
178	132000
179	132000
180	132000
181	132000
182	132000
183	132000
184	132000
185	132000
186	132000
187	132000
188	132000
189	132000
190	132000
191	132000
192	132000
193	132000
194	132000
195	132000
196	132000
197	132000
198	132000
199	132000
200	132000
201	132000
202	132000
203	132000
204	132000
205	132000
206	132000
207	132000
208	132000
209	132000
210	132000
211	132000
212	132000
213	132000
214	132000
215	132000
216	132000
217	132000
218	132000
219	132000
220	132000
221	132000
222	132000
223	132000
224	132000
225	132000
226	132000
227	132000
228	132000
229	132000
230	132000
231	132000
232	132000
233	132000
234	132000
235	132000
236	132000
237	132000
238	132000
239	132000
240	132000
241	132000
242	132000
243	132000
244	132000
245	132000
246	132000
247	132000
248	132000
249	132000
250	132000
251	132000
252	132000
253	132000
254	132000
255	132000
256	132000
257	132000
258	132000
259	132000
260	132000
261	132000
262	132000
263	132000
264	132000
265	132000
266	132000
267	132000
268	132000
269	132000
270	132000
271	132000
272	132000
273	132000
274	132000
275	132000
276	132000
277	132000
278	132000
279	132000
280	202200
281	202200
282	202200
283	202200
284	202200
285	202200
286	202200
287	202200
288	202200
289	202200
290	202200
291	202200
292	202200
293	202200
294	202200
295	202200
296	202200
297	202200
298	202200
299	202200
300	202200
301	202200
302	202200
303	202200
304	202200
305	202200
306	202200
307	202200
308	202200
309	202200
310	202200
311	202200
312	202200
313	202200
314	202200
315	202200
316	202200
317	202200
318	202200
319	202200
320	202200
321	202200
322	202200
323	202200
324	202200
325	202200
326	202200
327	202200
328	202200
329	202200
330	202200
331	202200
332	202200
333	202200
334	202200
335	202200
336	202200
337	202200
338	202200
339	202200
340	202200
341	202200
342	202200
343	202200
344	202200
345	202200
346	202200
347	202200
348	202200
349	202200
350	202200
351	202200
352	202200
353	202200
354	202200
355	202200
356	202200
357	202200
358	202200
359	202200
360	202200
361	202200
362	202200
363	202200
364	202200
365	202200
366	202200
367	202200
368	202200
369	202200
370	202200
371	202200
372	202200
373	202200
374	202200
375	202200
376	202200
377	202200
378	202200
379	202200
380	202200
381	202200
382	202200
383	202200
384	202200
385	202200
386	202200
387	202200
388	202200
389	202200
390	202200
391	202200
392	202200
393	202200
394	202200
395	202200
396	202200
397	202200
398	202200
399	202200
400	202200
401	202200
402	202200
403	202200
404	202200
405	202200
406	202200
407	202200
408	202200
409	202200
410	202200
411	202200
412	202200
413	202200
414	202200
415	202200
416	202200
417	202200
418	202200
419	202200
420	202200
421	202200
422	202200
423	202200
424	202200
425	202200
426	202200
427	202200
428	202200
429	202200
430	202200
431	202200
432	202200
433	202200
434	202200
435	202200
436	202200
437	202200
438	202200
439	202200
440	202200
441	202200
442	202200
443	202200
444	202200
445	202200
446	202200
447	202200
448	202200
449	202200
450	202200
451	202200
452	202200
453	202200
454	202200
455	202200
456	202200
457	202200
458	202200
459	202200
460	202200
461	202200
462	202200
463	202200
464	202200
465	202200
466	202200
467	202200
468	202200
469	202200
470	202200
471	202200
472	202200
473	202200
474	202200
475	202200
476	202200
477	202200
478	202200
479	202200
480	202200
481	202200
482	202200
483	202200
484	202200
485	202200
486	202200
487	202200
488	202200
489	202200
490	202200
491	202200
492	202200
493	202200
494	202200
495	202200
496	202200
497	202200
498	202200
499	202200
500	202200
501	202200
502	202200
503	202200
504	202200
505	202200
506	202200
507	202200
508	202200
509	202200
510	202200
511	202200
512	202200
513	202200
514	202200
515	202200
516	202200
517	202200
518	202200
519	202200
520	202200
521	202200
522	202200
523	202200
524	202200
525	202200
526	202200
527	202200
528	202200
529	202200
530	202200
531	202200
532	202200
533	202200
534	202200
535	202200
536	202200
537	202200
538	202200
539	202200
540	202200
541	202200
542	202200
543	202200
544	202200
545	202200
546	202200
547	202200
548	202200
549	202200
550	202200
551	202200
552	202200
553	202200
554	202200
555	202200
556	202200
557	202200
558	202200
559	307800
560	307800
561	307800
562	307800
563	307800
564	307800
565	307800
566	307800
567	307800
568	307800
569	307800
570	307800
571	307800
572	307800
573	307800
574	307800
575	307800
576	307800
577	307800
578	307800
579	307800
580	307800
581	307800
582	307800
583	307800
584	307800
585	307800
586	307800
587	307800
588	307800
589	307800
590	307800
591	307800
592	307800
593	307800
594	307800
595	307800
596	307800
597	307800
598	307800
599	307800
600	307800
601	307800
602	307800
603	307800
604	307800
605	307800
606	307800
607	307800
608	307800
609	307800
610	307800
611	307800
612	307800
613	307800
614	307800
615	307800
616	307800
617	307800
618	307800
619	307800
620	307800
621	307800
622	307800
623	307800
624	307800
625	307800
626	307800
627	307800
628	307800
629	307800
630	307800
631	307800
632	307800
633	307800
634	307800
635	307800
636	307800
637	307800
638	307800
639	307800
640	307800
641	307800
642	307800
643	307800
644	307800
645	307800
646	307800
647	307800
648	307800
649	307800
650	307800
651	307800
652	307800
653	307800
654	307800
655	307800
656	307800
657	307800
658	307800
659	307800
660	307800
661	307800
662	307800
663	307800
664	307800
665	307800
666	307800
667	307800
668	307800
669	307800
670	307800
671	307800
672	307800
673	307800
674	307800
675	307800
676	307800
677	307800
678	307800
679	307800
680	307800
681	307800
682	307800
683	307800
684	307800
685	307800
686	307800
687	307800
688	307800
689	307800
690	307800
691	307800
692	307800
693	307800
694	307800
695	307800
696	307800
697	307800
698	307800
699	307800
700	307800
701	307800
702	307800
703	307800
704	307800
705	307800
706	307800
707	307800
708	307800
709	307800
710	307800
711	307800
712	307800
713	307800
714	307800
715	307800
716	307800
717	307800
718	307800
719	307800
720	307800
721	307800
722	307800
723	307800
724	307800
725	307800
726	307800
727	307800
728	307800
729	307800
730	307800
731	307800
732	307800
733	307800
734	307800
735	307800
736	307800
737	307800
738	307800
739	307800
740	307800
741	307800
742	307800
743	307800
744	307800
745	307800
746	307800
747	307800
748	307800
749	307800
750	307800
751	307800
752	307800
753	307800
754	307800
755	307800
756	307800
757	307800
758	307800
759	307800
760	307800
761	307800
762	307800
763	307800
764	307800
765	307800
766	307800
767	307800
768	307800
769	307800
770	307800
771	307800
772	307800
773	307800
774	307800
775	307800
776	307800
777	307800
778	307800
779	307800
780	307800
781	307800
782	307800
783	307800
784	307800
785	307800
786	307800
787	307800
788	307800
789	307800
790	307800
791	307800
792	307800
793	307800
794	307800
795	307800
796	307800
797	307800
798	307800
799	307800
800	307800
801	307800
802	307800
803	307800
804	307800
805	307800
806	307800
807	307800
808	307800
809	307800
810	307800
811	307800
812	307800
813	307800
814	307800
815	307800
816	307800
817	307800
818	307800
819	307800
820	307800
821	307800
822	307800
823	307800
824	307800
825	307800
826	307800
827	307800
828	307800
829	307800
830	307800
831	307800
832	307800
833	307800
834	307800
835	307800
836	307800
837	307800
VEHICLES_UNIT_DISTANCE_COST_SECTION
1	100
2	100
3	100
4	100
5	100
6	100
7	100
8	100
9	100
10	100
11	100
12	100
13	100
14	100
15	100
16	100
17	100
18	100
19	100
20	100
21	100
22	100
23	100
24	100
25	100
26	100
27	100
28	100
29	100
30	100
31	100
32	100
33	100
34	100
35	100
36	100
37	100
38	100
39	100
40	100
41	100
42	100
43	100
44	100
45	100
46	100
47	100
48	100
49	100
50	100
51	100
52	100
53	100
54	100
55	100
56	100
57	100
58	100
59	100
60	100
61	100
62	100
63	100
64	100
65	100
66	100
67	100
68	100
69	100
70	100
71	100
72	100
73	100
74	100
75	100
76	100
77	100
78	100
79	100
80	100
81	100
82	100
83	100
84	100
85	100
86	100
87	100
88	100
89	100
90	100
91	100
92	100
93	100
94	100
95	100
96	100
97	100
98	100
99	100
100	100
101	100
102	100
103	100
104	100
105	100
106	100
107	100
108	100
109	100
110	100
111	100
112	100
113	100
114	100
115	100
116	100
117	100
118	100
119	100
120	100
121	100
122	100
123	100
124	100
125	100
126	100
127	100
128	100
129	100
130	100
131	100
132	100
133	100
134	100
135	100
136	100
137	100
138	100
139	100
140	100
141	100
142	100
143	100
144	100
145	100
146	100
147	100
148	100
149	100
150	100
151	100
152	100
153	100
154	100
155	100
156	100
157	100
158	100
159	100
160	100
161	100
162	100
163	100
164	100
165	100
166	100
167	100
168	100
169	100
170	100
171	100
172	100
173	100
174	100
175	100
176	100
177	100
178	100
179	100
180	100
181	100
182	100
183	100
184	100
185	100
186	100
187	100
188	100
189	100
190	100
191	100
192	100
193	100
194	100
195	100
196	100
197	100
198	100
199	100
200	100
201	100
202	100
203	100
204	100
205	100
206	100
207	100
208	100
209	100
210	100
211	100
212	100
213	100
214	100
215	100
216	100
217	100
218	100
219	100
220	100
221	100
222	100
223	100
224	100
225	100
226	100
227	100
228	100
229	100
230	100
231	100
232	100
233	100
234	100
235	100
236	100
237	100
238	100
239	100
240	100
241	100
242	100
243	100
244	100
245	100
246	100
247	100
248	100
249	100
250	100
251	100
252	100
253	100
254	100
255	100
256	100
257	100
258	100
259	100
260	100
261	100
262	100
263	100
264	100
265	100
266	100
267	100
268	100
269	100
270	100
271	100
272	100
273	100
274	100
275	100
276	100
277	100
278	100
279	100
280	100
281	100
282	100
283	100
284	100
285	100
286	100
287	100
288	100
289	100
290	100
291	100
292	100
293	100
294	100
295	100
296	100
297	100
298	100
299	100
300	100
301	100
302	100
303	100
304	100
305	100
306	100
307	100
308	100
309	100
310	100
311	100
312	100
313	100
314	100
315	100
316	100
317	100
318	100
319	100
320	100
321	100
322	100
323	100
324	100
325	100
326	100
327	100
328	100
329	100
330	100
331	100
332	100
333	100
334	100
335	100
336	100
337	100
338	100
339	100
340	100
341	100
342	100
343	100
344	100
345	100
346	100
347	100
348	100
349	100
350	100
351	100
352	100
353	100
354	100
355	100
356	100
357	100
358	100
359	100
360	100
361	100
362	100
363	100
364	100
365	100
366	100
367	100
368	100
369	100
370	100
371	100
372	100
373	100
374	100
375	100
376	100
377	100
378	100
379	100
380	100
381	100
382	100
383	100
384	100
385	100
386	100
387	100
388	100
389	100
390	100
391	100
392	100
393	100
394	100
395	100
396	100
397	100
398	100
399	100
400	100
401	100
402	100
403	100
404	100
405	100
406	100
407	100
408	100
409	100
410	100
411	100
412	100
413	100
414	100
415	100
416	100
417	100
418	100
419	100
420	100
421	100
422	100
423	100
424	100
425	100
426	100
427	100
428	100
429	100
430	100
431	100
432	100
433	100
434	100
435	100
436	100
437	100
438	100
439	100
440	100
441	100
442	100
443	100
444	100
445	100
446	100
447	100
448	100
449	100
450	100
451	100
452	100
453	100
454	100
455	100
456	100
457	100
458	100
459	100
460	100
461	100
462	100
463	100
464	100
465	100
466	100
467	100
468	100
469	100
470	100
471	100
472	100
473	100
474	100
475	100
476	100
477	100
478	100
479	100
480	100
481	100
482	100
483	100
484	100
485	100
486	100
487	100
488	100
489	100
490	100
491	100
492	100
493	100
494	100
495	100
496	100
497	100
498	100
499	100
500	100
501	100
502	100
503	100
504	100
505	100
506	100
507	100
508	100
509	100
510	100
511	100
512	100
513	100
514	100
515	100
516	100
517	100
518	100
519	100
520	100
521	100
522	100
523	100
524	100
525	100
526	100
527	100
528	100
529	100
530	100
531	100
532	100
533	100
534	100
535	100
536	100
537	100
538	100
539	100
540	100
541	100
542	100
543	100
544	100
545	100
546	100
547	100
548	100
549	100
550	100
551	100
552	100
553	100
554	100
555	100
556	100
557	100
558	100
559	100
560	100
561	100
562	100
563	100
564	100
565	100
566	100
567	100
568	100
569	100
570	100
571	100
572	100
573	100
574	100
575	100
576	100
577	100
578	100
579	100
580	100
581	100
582	100
583	100
584	100
585	100
586	100
587	100
588	100
589	100
590	100
591	100
592	100
593	100
594	100
595	100
596	100
597	100
598	100
599	100
600	100
601	100
602	100
603	100
604	100
605	100
606	100
607	100
608	100
609	100
610	100
611	100
612	100
613	100
614	100
615	100
616	100
617	100
618	100
619	100
620	100
621	100
622	100
623	100
624	100
625	100
626	100
627	100
628	100
629	100
630	100
631	100
632	100
633	100
634	100
635	100
636	100
637	100
638	100
639	100
640	100
641	100
642	100
643	100
644	100
645	100
646	100
647	100
648	100
649	100
650	100
651	100
652	100
653	100
654	100
655	100
656	100
657	100
658	100
659	100
660	100
661	100
662	100
663	100
664	100
665	100
666	100
667	100
668	100
669	100
670	100
671	100
672	100
673	100
674	100
675	100
676	100
677	100
678	100
679	100
680	100
681	100
682	100
683	100
684	100
685	100
686	100
687	100
688	100
689	100
690	100
691	100
692	100
693	100
694	100
695	100
696	100
697	100
698	100
699	100
700	100
701	100
702	100
703	100
704	100
705	100
706	100
707	100
708	100
709	100
710	100
711	100
712	100
713	100
714	100
715	100
716	100
717	100
718	100
719	100
720	100
721	100
722	100
723	100
724	100
725	100
726	100
727	100
728	100
729	100
730	100
731	100
732	100
733	100
734	100
735	100
736	100
737	100
738	100
739	100
740	100
741	100
742	100
743	100
744	100
745	100
746	100
747	100
748	100
749	100
750	100
751	100
752	100
753	100
754	100
755	100
756	100
757	100
758	100
759	100
760	100
761	100
762	100
763	100
764	100
765	100
766	100
767	100
768	100
769	100
770	100
771	100
772	100
773	100
774	100
775	100
776	100
777	100
778	100
779	100
780	100
781	100
782	100
783	100
784	100
785	100
786	100
787	100
788	100
789	100
790	100
791	100
792	100
793	100
794	100
795	100
796	100
797	100
798	100
799	100
800	100
801	100
802	100
803	100
804	100
805	100
806	100
807	100
808	100
809	100
810	100
811	100
812	100
813	100
814	100
815	100
816	100
817	100
818	100
819	100
820	100
821	100
822	100
823	100
824	100
825	100
826	100
827	100
828	100
829	100
830	100
831	100
832	100
833	100
834	100
835	100
836	100
837	100
DEPOT_SECTION
1
EOF
